HUN,8,6,502
4,23,0,23,1,24,2,26,5,25,3,30
0,28,1,22,3,25,4,25,2,26,5,28
0,24,1,30,5,23,2,29,4,26,3,30
2,30,0,27,3,29,4,22,1,27,5,26
2,23,4,22,1,22,5,22,0,25,3,25
3,30,5,26,2,22,4,28,0,22,1,23
1,27,4,23,5,21,3,29,0,28,2,21
1,30,5,24,0,23,2,27,4,28,3,24
